(set-info :smt-lib-version 2.6)
(set-logic QF_UF)
(set-info :source |
Generated by: David Deharbe, CLEARSY
Generated on: 2019-09-06
Generator: bxml;pog;pog2smt (Atelier B)
Application: B-method
Target solver: CVC4, Z3
|)
(set-info :license "https://creativecommons.org/licenses/by-nc/4.0/")
(set-info :category "industrial")
(set-info :status sat)
; Prelude
(declare-sort U 0)
(declare-fun |*i| (U U) U)
(declare-fun |+i| (U U) U)
(declare-fun |-i| (U U) U)
(declare-fun idiv (U U) U)
(declare-fun |*r| (U U) U)
(declare-fun |+r| (U U) U)
(declare-fun |-r| (U U) U)
(declare-fun rdiv (U U) U)
(declare-fun modulo (U U) U)
(declare-fun |<i| (U U) Bool)
(declare-fun |<=i| (U U) Bool)
(declare-fun |>i| (U U) Bool)
(declare-fun |>=i| (U U) Bool)
(declare-fun |<r| (U U) Bool)
(declare-fun |<=r| (U U) Bool)
(declare-fun |>r| (U U) Bool)
(declare-fun |>=r| (U U) Bool)
(declare-fun iuminus (U) U)
(declare-fun ruminus (U) U)
(declare-fun TRUE () U)
(declare-fun FALSE () U)
(assert (not (= TRUE FALSE)))
(declare-fun empty () U)
(declare-fun bool (Bool) U)
(declare-fun BOOL () U)
(declare-fun INT () U)
(declare-fun INTEGER () U)
(declare-fun NAT () U)
(declare-fun NAT1 () U)
(declare-fun NATURAL () U)
(declare-fun NATURAL1 () U)
(declare-fun FLOAT () U)
(declare-fun MaxInt () U)
(declare-fun MinInt () U)
(declare-fun |STRING| () U)
(declare-fun REAL () U)
(declare-fun set_prod (U U) U)
(declare-fun set_diff (U U) U)
(declare-fun mapplet (U U) U)
(declare-fun |**i| (U U) U)
(declare-fun |**r| (U U) U)
(declare-fun |+->| (U U) U)
(declare-fun |+->>| (U U) U)
(declare-fun |-->| (U U) U)
(declare-fun |-->>| (U U) U)
(declare-fun |<->| (U U) U)
(declare-fun |>+>| (U U) U)
(declare-fun |>->| (U U) U)
(declare-fun |>+>>| (U U) U)
(declare-fun |>->>| (U U) U)
(declare-fun |->| (U U) U)
(declare-fun interval (U U) U)
(declare-fun composition (U U) U)
(declare-fun binary_inter (U U) U)
(declare-fun restriction_head (U U) U)
(declare-fun semicolon (U U) U)
(declare-fun |<+| (U U) U)
(declare-fun |<-| (U U) U)
(declare-fun domain_subtraction (U U) U)
(declare-fun domain_restriction (U U) U)
(declare-fun |><| (U U) U)
(declare-fun parallel_product (U U) U)
(declare-fun binary_union (U U) U)
(declare-fun restriction_tail (U U) U)
(declare-fun concatenate (U U) U)
(declare-fun range_restriction (U U) U)
(declare-fun range_subtraction (U U) U)
(declare-fun image (U U) U)
(declare-fun apply (U U) U)
(declare-fun prj1 (U U) U)
(declare-fun prj2 (U U) U)
(declare-fun iterate (U U) U)
(declare-fun |const| (U U) U)
(declare-fun rank (U U) U)
(declare-fun father (U U) U)
(declare-fun subtree (U U) U)
(declare-fun arity (U U) U)
(declare-fun |+f| (U U) U)
(declare-fun |-f| (U U) U)
(declare-fun |*f| (U U) U)
(declare-fun |fdiv| (U U) U)
(declare-fun tbin (U U U) U)
(declare-fun son (U U U) U)
(declare-fun mem (U U) Bool)
(declare-fun subset (U U) Bool)
(declare-fun strict_subset (U U) Bool)
(declare-fun |<=f| (U U) Bool)
(declare-fun |<f| (U U) Bool)
(declare-fun |>=f| (U U) Bool)
(declare-fun |>f| (U U) Bool)
(declare-fun imax (U) U)
(declare-fun imin (U) U)
(declare-fun rmax (U) U)
(declare-fun rmin (U) U)
(declare-fun card (U) U)
(declare-fun dom (U) U)
(declare-fun ran (U) U)
(declare-fun POW (U) U)
(declare-fun POW1 (U) U)
(declare-fun FIN (U) U)
(declare-fun FIN1 (U) U)
(declare-fun union (U) U)
(declare-fun inter (U) U)
(declare-fun seq (U) U)
(declare-fun seq1 (U) U)
(declare-fun iseq (U) U)
(declare-fun iseq1 (U) U)
(declare-fun inverse (U) U)
(declare-fun size (U) U)
(declare-fun perm (U) U)
(declare-fun first (U) U)
(declare-fun last (U) U)
(declare-fun id (U) U)
(declare-fun closure (U) U)
(declare-fun closure1 (U) U)
(declare-fun tail (U) U)
(declare-fun front (U) U)
(declare-fun reverse (U) U)
(declare-fun rev (U) U)
(declare-fun conc (U) U)
(declare-fun succ (U) U)
(declare-fun pred (U) U)
(declare-fun rel (U) U)
(declare-fun fnc (U) U)
(declare-fun real (U) U)
(declare-fun floor (U) U)
(declare-fun ceiling (U) U)
(declare-fun tree (U) U)
(declare-fun btree (U) U)
(declare-fun top (U) U)
(declare-fun sons (U) U)
(declare-fun prefix (U) U)
(declare-fun postfix (U) U)
(declare-fun sizet (U) U)
(declare-fun mirror (U) U)
(declare-fun left (U) U)
(declare-fun right (U) U)
(declare-fun infix (U) U)
(declare-fun ubin (U) U)
(declare-fun SEQ (U) U)
(declare-fun SET (U) U)
; Opaque formulas
(declare-fun e199 () U)
(declare-fun e134 () U)
(declare-fun e0 () U)
(declare-fun e141 () U)
(declare-fun e146 () U)
(declare-fun e140 () U)
(declare-fun e170 () U)
(declare-fun e143 () U)
(declare-fun e150 () U)
(declare-fun e195 () U)
(declare-fun e144 () U)
(declare-fun e169 () U)
(declare-fun e261 () U)
(declare-fun e262 () U)
(declare-fun e171 () U)
(declare-fun e187 () U)
(declare-fun e189 () U)
(declare-fun e185 () U)
(declare-fun e259 () U)
(declare-fun e203 () U)
(declare-fun e260 () U)
(declare-fun e222 () U)
(declare-fun e167 () U)
(declare-fun e138 () U)
(declare-fun e223 () U)
(declare-fun e136 () U)
(declare-fun g_s0_1 () U)
(declare-fun g_s1_2 () U)
(declare-fun g_s10_11 () U)
(declare-fun g_s100_101 () U)
(declare-fun g_s101_102 () U)
(declare-fun g_s102_103 () U)
(declare-fun g_s103_104 () U)
(declare-fun g_s104_105 () U)
(declare-fun g_s105_106 () U)
(declare-fun g_s106_107 () U)
(declare-fun g_s107_108 () U)
(declare-fun g_s108_109 () U)
(declare-fun g_s109_110 () U)
(declare-fun g_s11_12 () U)
(declare-fun g_s110_111 () U)
(declare-fun g_s111_112 () U)
(declare-fun g_s112_113 () U)
(declare-fun g_s113_114 () U)
(declare-fun g_s114_115 () U)
(declare-fun g_s115_116 () U)
(declare-fun g_s116_117 () U)
(declare-fun g_s117_118 () U)
(declare-fun g_s118_119 () U)
(declare-fun g_s119_120 () U)
(declare-fun g_s12_13 () U)
(declare-fun g_s120_121 () U)
(declare-fun g_s121_122 () U)
(declare-fun g_s122_123 () U)
(declare-fun g_s123_124 () U)
(declare-fun g_s124_125 () U)
(declare-fun g_s125_126 () U)
(declare-fun g_s126_127 () U)
(declare-fun g_s127_128 () U)
(declare-fun g_s128_129 () U)
(declare-fun g_s129_130 () U)
(declare-fun g_s13_14 () U)
(declare-fun g_s130_131 () U)
(declare-fun g_s131_132 () U)
(declare-fun g_s132_133 () U)
(declare-fun g_s133_135 () U)
(declare-fun g_s134_137 () U)
(declare-fun g_s135_139 () U)
(declare-fun g_s136_142 () U)
(declare-fun g_s137_145 () U)
(declare-fun g_s138_147 () U)
(declare-fun g_s139_148 () U)
(declare-fun g_s14_15 () U)
(declare-fun g_s140_149 () U)
(declare-fun g_s141_151 () U)
(declare-fun g_s142_152 () U)
(declare-fun g_s143_153 () U)
(declare-fun g_s144_154 () U)
(declare-fun g_s145_155 () U)
(declare-fun g_s146_156 () U)
(declare-fun g_s147_157 () U)
(declare-fun g_s148_158 () U)
(declare-fun g_s149_159 () U)
(declare-fun g_s15_16 () U)
(declare-fun g_s150_160 () U)
(declare-fun g_s151_161 () U)
(declare-fun g_s152_162 () U)
(declare-fun g_s153_163 () U)
(declare-fun g_s154_164 () U)
(declare-fun g_s155_165 () U)
(declare-fun g_s156_166 () U)
(declare-fun g_s157_168 () U)
(declare-fun g_s158_172 () U)
(declare-fun g_s159_173 () U)
(declare-fun g_s16_17 () U)
(declare-fun g_s160_174 () U)
(declare-fun g_s161_175 () U)
(declare-fun g_s162_176 () U)
(declare-fun g_s163_177 () U)
(declare-fun g_s164_178 () U)
(declare-fun g_s165_179 () U)
(declare-fun g_s166_180 () U)
(declare-fun g_s167_181 () U)
(declare-fun g_s168_182 () U)
(declare-fun g_s169_183 () U)
(declare-fun g_s17_18 () U)
(declare-fun g_s170_184 () U)
(declare-fun g_s171_186 () U)
(declare-fun g_s172_188 () U)
(declare-fun g_s173_190 () U)
(declare-fun g_s174_191 () U)
(declare-fun g_s175_192 () U)
(declare-fun g_s176_193 () U)
(declare-fun g_s177_194 () U)
(declare-fun g_s178_197 () U)
(declare-fun g_s179_196 () U)
(declare-fun g_s18_19 () U)
(declare-fun g_s180_198 () U)
(declare-fun g_s181_200 () U)
(declare-fun g_s182_201 () U)
(declare-fun g_s183_202 () U)
(declare-fun g_s184_204 () U)
(declare-fun g_s185_205 () U)
(declare-fun g_s186_206 () U)
(declare-fun g_s187_207 () U)
(declare-fun g_s188_208 () U)
(declare-fun g_s189_209 () U)
(declare-fun g_s19_20 () U)
(declare-fun g_s190_210 () U)
(declare-fun g_s191_211 () U)
(declare-fun g_s192_212 () U)
(declare-fun g_s193_213 () U)
(declare-fun g_s194_214 () U)
(declare-fun g_s195_215 () U)
(declare-fun g_s196_216 () U)
(declare-fun g_s197_217 () U)
(declare-fun g_s198_218 () U)
(declare-fun g_s199_219 () U)
(declare-fun g_s2_3 () U)
(declare-fun g_s20_21 () U)
(declare-fun g_s200_220 () U)
(declare-fun g_s201_221 () U)
(declare-fun g_s202_224 () U)
(declare-fun g_s203_225 () U)
(declare-fun g_s204_226 () U)
(declare-fun g_s205_227 () U)
(declare-fun g_s206_228 () U)
(declare-fun g_s207_229 () U)
(declare-fun g_s208_230 () U)
(declare-fun g_s209_231 () U)
(declare-fun g_s21_22 () U)
(declare-fun g_s210_232 () U)
(declare-fun g_s211_233 () U)
(declare-fun g_s212_234 () U)
(declare-fun g_s213_235 () U)
(declare-fun g_s214_236 () U)
(declare-fun g_s215_237 () U)
(declare-fun g_s216_238 () U)
(declare-fun g_s217_239 () U)
(declare-fun g_s218_240 () U)
(declare-fun g_s219_241 () U)
(declare-fun g_s22_23 () U)
(declare-fun g_s220_242 () U)
(declare-fun g_s221_243 () U)
(declare-fun g_s222_244 () U)
(declare-fun g_s223_245 () U)
(declare-fun g_s224_246 () U)
(declare-fun g_s225_247 () U)
(declare-fun g_s226_248 () U)
(declare-fun g_s227_249 () U)
(declare-fun g_s228_250 () U)
(declare-fun g_s229_251 () U)
(declare-fun g_s23_24 () U)
(declare-fun g_s230_252 () U)
(declare-fun g_s231_253 () U)
(declare-fun g_s232_254 () U)
(declare-fun g_s233_255 () U)
(declare-fun g_s234_256 () U)
(declare-fun g_s235_257 () U)
(declare-fun g_s236_258 () U)
(declare-fun g_s237_263 () U)
(declare-fun g_s238_264 () U)
(declare-fun g_s239_265 () U)
(declare-fun g_s24_25 () U)
(declare-fun g_s241_266 () U)
(declare-fun g_s25_26 () U)
(declare-fun g_s26_27 () U)
(declare-fun g_s27_28 () U)
(declare-fun g_s28_29 () U)
(declare-fun g_s29_30 () U)
(declare-fun g_s3_4 () U)
(declare-fun g_s30_31 () U)
(declare-fun g_s31_32 () U)
(declare-fun g_s32_33 () U)
(declare-fun g_s33_34 () U)
(declare-fun g_s34_35 () U)
(declare-fun g_s35_36 () U)
(declare-fun g_s36_37 () U)
(declare-fun g_s37_38 () U)
(declare-fun g_s38_39 () U)
(declare-fun g_s39_40 () U)
(declare-fun g_s4_5 () U)
(declare-fun g_s40_41 () U)
(declare-fun g_s41_42 () U)
(declare-fun g_s42_43 () U)
(declare-fun g_s43_44 () U)
(declare-fun g_s44_45 () U)
(declare-fun g_s45_46 () U)
(declare-fun g_s46_47 () U)
(declare-fun g_s47_48 () U)
(declare-fun g_s48_49 () U)
(declare-fun g_s49_50 () U)
(declare-fun g_s5_6 () U)
(declare-fun g_s50_51 () U)
(declare-fun g_s51_52 () U)
(declare-fun g_s52_53 () U)
(declare-fun g_s53_54 () U)
(declare-fun g_s54_55 () U)
(declare-fun g_s55_56 () U)
(declare-fun g_s56_57 () U)
(declare-fun g_s57_58 () U)
(declare-fun g_s58_59 () U)
(declare-fun g_s59_60 () U)
(declare-fun g_s6_7 () U)
(declare-fun g_s60_61 () U)
(declare-fun g_s61_62 () U)
(declare-fun g_s62_63 () U)
(declare-fun g_s63_64 () U)
(declare-fun g_s64_65 () U)
(declare-fun g_s65_66 () U)
(declare-fun g_s66_67 () U)
(declare-fun g_s67_68 () U)
(declare-fun g_s68_69 () U)
(declare-fun g_s69_70 () U)
(declare-fun g_s7_8 () U)
(declare-fun g_s70_71 () U)
(declare-fun g_s71_72 () U)
(declare-fun g_s72_73 () U)
(declare-fun g_s73_74 () U)
(declare-fun g_s74_75 () U)
(declare-fun g_s75_76 () U)
(declare-fun g_s76_77 () U)
(declare-fun g_s77_78 () U)
(declare-fun g_s78_79 () U)
(declare-fun g_s79_80 () U)
(declare-fun g_s8_9 () U)
(declare-fun g_s80_81 () U)
(declare-fun g_s81_82 () U)
(declare-fun g_s82_83 () U)
(declare-fun g_s83_84 () U)
(declare-fun g_s84_85 () U)
(declare-fun g_s85_86 () U)
(declare-fun g_s86_87 () U)
(declare-fun g_s87_88 () U)
(declare-fun g_s88_89 () U)
(declare-fun g_s89_90 () U)
(declare-fun g_s9_10 () U)
(declare-fun g_s90_91 () U)
(declare-fun g_s91_92 () U)
(declare-fun g_s92_93 () U)
(declare-fun g_s93_94 () U)
(declare-fun g_s94_95 () U)
(declare-fun g_s95_96 () U)
(declare-fun g_s96_97 () U)
(declare-fun g_s97_98 () U)
(declare-fun g_s98_99 () U)
(declare-fun g_s99_100 () U)
; Defines
(define-fun |def_B definitions| () Bool (and (= NAT (interval e0 MaxInt)) (= INT (interval MinInt MaxInt))))
(define-fun |def_ctx| () Bool (and (= g_s0_1 (SET (mapplet g_s48_49 (mapplet g_s47_48 (mapplet g_s46_47 (mapplet g_s45_46 (mapplet g_s44_45 (mapplet g_s43_44 (mapplet g_s42_43 (mapplet g_s41_42 (mapplet g_s40_41 (mapplet g_s39_40 (mapplet g_s38_39 (mapplet g_s37_38 (mapplet g_s36_37 (mapplet g_s35_36 (mapplet g_s34_35 (mapplet g_s33_34 (mapplet g_s32_33 (mapplet g_s31_32 (mapplet g_s30_31 (mapplet g_s29_30 (mapplet g_s28_29 (mapplet g_s27_28 (mapplet g_s26_27 (mapplet g_s25_26 (mapplet g_s24_25 (mapplet g_s23_24 (mapplet g_s22_23 (mapplet g_s21_22 (mapplet g_s20_21 (mapplet g_s19_20 (mapplet g_s18_19 (mapplet g_s17_18 (mapplet g_s16_17 (mapplet g_s15_16 (mapplet g_s14_15 (mapplet g_s13_14 (mapplet g_s12_13 (mapplet g_s11_12 (mapplet g_s10_11 (mapplet g_s9_10 (mapplet g_s8_9 (mapplet g_s7_8 (mapplet g_s6_7 (mapplet g_s5_6 (mapplet g_s4_5 (mapplet g_s3_4 (mapplet g_s2_3 g_s1_2))))))))))))))))))))))))))))))))))))))))))))))))) (= g_s49_50 (SET (mapplet g_s57_58 (mapplet g_s56_57 (mapplet g_s55_56 (mapplet g_s54_55 (mapplet g_s53_54 (mapplet g_s52_53 (mapplet g_s51_52 g_s50_51))))))))) (= g_s58_59 (SET (mapplet g_s85_86 (mapplet g_s84_85 (mapplet g_s83_84 (mapplet g_s82_83 (mapplet g_s81_82 (mapplet g_s80_81 (mapplet g_s79_80 (mapplet g_s78_79 (mapplet g_s77_78 (mapplet g_s76_77 (mapplet g_s75_76 (mapplet g_s74_75 (mapplet g_s73_74 (mapplet g_s72_73 (mapplet g_s71_72 (mapplet g_s70_71 (mapplet g_s69_70 (mapplet g_s68_69 (mapplet g_s67_68 (mapplet g_s66_67 (mapplet g_s65_66 (mapplet g_s64_65 (mapplet g_s63_64 (mapplet g_s62_63 (mapplet g_s61_62 (mapplet g_s60_61 g_s59_60)))))))))))))))))))))))))))) (= g_s86_87 (SET (mapplet g_s88_89 g_s87_88))) (= g_s89_90 (SET (mapplet g_s98_99 (mapplet g_s97_98 (mapplet g_s96_97 (mapplet g_s95_96 (mapplet g_s94_95 (mapplet g_s93_94 (mapplet g_s92_93 (mapplet g_s91_92 g_s90_91)))))))))) (= g_s99_100 (SET (mapplet g_s102_103 (mapplet g_s101_102 g_s100_101)))) (= g_s103_104 (SET (mapplet g_s105_106 g_s104_105))) (= g_s106_107 (SET (mapplet g_s113_114 (mapplet g_s112_113 (mapplet g_s111_112 (mapplet g_s110_111 (mapplet g_s109_110 (mapplet g_s108_109 g_s107_108)))))))) (= g_s114_115 (SET (mapplet g_s123_124 (mapplet g_s122_123 (mapplet g_s121_122 (mapplet g_s120_121 (mapplet g_s119_120 (mapplet g_s118_119 (mapplet g_s117_118 (mapplet g_s116_117 g_s115_116)))))))))) (= g_s124_125 (SET (mapplet g_s128_129 (mapplet g_s127_128 (mapplet g_s126_127 g_s125_126))))) (= g_s129_130 (SET (mapplet g_s132_133 (mapplet g_s131_132 g_s130_131)))) (= g_s133_135 (interval e0 e134)) (= g_s134_137 (interval e0 e136)) (= g_s135_139 (interval e0 e138)) (= g_s136_142 (|-->| (interval e141 e140) g_s135_139)) (mem g_s137_145 (|-->| (set_prod (interval e0 e144) (interval e0 e143)) g_s135_139)) (mem g_s138_147 (|-->| (set_prod (interval e0 e144) (interval e0 e146)) g_s135_139)) (mem g_s139_148 (|-->| (set_prod (interval e0 e144) (interval e0 e146)) g_s135_139)) (mem g_s140_149 g_s135_139) (|<=i| e150 g_s140_149) (mem g_s141_151 (|-->| (interval e0 e144) g_s134_137)) (mem g_s142_152 (|-->| (interval e0 e144) g_s134_137)) (mem g_s143_153 g_s133_135) (mem g_s144_154 g_s135_139) (mem g_s145_155 g_s135_139) (mem g_s146_156 g_s135_139) (mem g_s147_157 g_s135_139) (mem g_s148_158 g_s135_139) (mem g_s149_159 g_s135_139) (mem g_s150_160 g_s135_139) (mem g_s151_161 g_s135_139) (mem g_s152_162 g_s135_139) (mem g_s153_163 g_s134_137) (not (= g_s152_162 g_s148_158)) (mem g_s154_164 g_s135_139) (mem g_s155_165 g_s135_139) (mem g_s156_166 g_s135_139) (|<=i| g_s156_166 e167) (mem g_s157_168 g_s135_139) (|<=i| (|+i| g_s156_166 e169) g_s155_165) (|<=i| (|+i| g_s157_168 e170) g_s155_165) (|<=i| e171 g_s155_165) (mem g_s158_172 g_s136_142) (= g_s158_172 (set_prod (interval e141 e140) (SET e138))) (mem g_s159_173 g_s135_139) (mem g_s160_174 g_s135_139) (mem g_s161_175 g_s135_139) (mem g_s162_176 g_s135_139) (mem g_s163_177 g_s135_139) (mem g_s164_178 g_s135_139) (mem g_s165_179 g_s135_139) (mem g_s166_180 g_s135_139) (mem g_s167_181 g_s135_139) (mem g_s168_182 g_s133_135) (mem g_s169_183 (|-->| (interval e0 e138) g_s134_137)) (mem g_s170_184 g_s135_139) (|<=i| g_s170_184 e185) (mem g_s171_186 g_s135_139) (|<i| g_s171_186 e187) (mem g_s172_188 g_s135_139) (|<i| g_s172_188 e187) (|<i| (|+i| g_s171_186 g_s172_188) e189) (mem g_s173_190 g_s134_137) (mem g_s174_191 g_s135_139) (mem g_s175_192 g_s135_139) (mem g_s176_193 g_s135_139) (mem g_s177_194 g_s135_139) (|<=i| e195 g_s175_192) (|<=i| g_s175_192 e185) (|<=i| (|+i| g_s178_197 g_s179_196) (idiv (|*i| (|*i| g_s170_184 g_s140_149) (|-i| e189 g_s172_188)) e189)) (|<=i| e0 (|-i| (|+i| e136 g_s179_196) (idiv (|*i| (|*i| g_s170_184 g_s140_149) (|-i| e189 g_s172_188)) e189))) (|<=i| (|+i| g_s178_197 g_s179_196) (|*i| g_s170_184 g_s140_149)) (|<=i| (idiv (|*i| (|*i| g_s170_184 g_s140_149) (|-i| e189 g_s171_186)) e189) (|+i| (idiv (|*i| (|*i| g_s170_184 g_s140_149) (|+i| e189 g_s172_188)) e189) e141)) (|<=i| (|*i| g_s140_149 (|-i| e189 g_s172_188)) g_s180_198) (|<=i| (idiv (|*i| g_s170_184 (|*i| g_s140_149 (|-i| e189 g_s172_188))) e189) e136) (|<=i| g_s178_197 (idiv (|*i| (|*i| g_s170_184 g_s140_149) (|-i| e189 g_s172_188)) e189)) (|<=i| (|*i| g_s170_184 g_s140_149) e136) (|<=i| e0 (|-i| (|+i| e141 (|*i| g_s170_184 g_s140_149)) (idiv (|*i| (|*i| g_s170_184 g_s140_149) (|-i| (|-i| e189 g_s172_188) g_s171_186)) e189))) (|<=i| (idiv (|*i| (|*i| g_s170_184 g_s140_149) (|-i| e189 g_s172_188)) e189) (|*i| g_s170_184 g_s140_149)) (|<=i| e0 (|-i| (|+i| e141 (idiv (|*i| (|*i| g_s170_184 g_s140_149) (|-i| e189 g_s172_188)) e189)) (idiv (|*i| (|*i| g_s170_184 g_s140_149) (|-i| (|-i| e189 g_s172_188) g_s171_186)) e189))) (|<=i| (|*i| g_s170_184 g_s140_149) (idiv (|*i| (|*i| g_s170_184 g_s140_149) (|+i| e189 g_s172_188)) e189)) (|<=i| e0 (|-i| (|+i| e141 (|*i| g_s170_184 g_s140_149)) (idiv (|*i| (|*i| g_s170_184 g_s140_149) (|-i| e189 g_s171_186)) e189))) (|<=i| e0 (|+i| e141 (|*i| g_s170_184 g_s140_149))) (|<=i| e0 (|-i| (|+i| (|+i| e136 g_s178_197) g_s179_196) (|*i| g_s170_184 g_s140_149))) (|<=i| e0 (|-i| (|-i| e199 g_s167_181) (|*i| g_s170_184 g_s140_149))) (|<=i| e0 (|-i| (|-i| e199 g_s167_181) (idiv (|*i| (|*i| g_s170_184 g_s140_149) (|-i| e189 g_s172_188)) e189))) (|<=i| (|*i| (|*i| e146 g_s170_184) g_s140_149) e134) (|<=i| (|*i| (|*i| e146 g_s170_184) g_s140_149) e199) (|<=i| e0 (|-i| (|-i| e199 g_s167_181) (|*i| (|*i| e146 g_s170_184) g_s140_149))) (mem g_s181_200 g_s135_139) (|<i| g_s181_200 g_s182_201) (mem g_s183_202 g_s135_139) (|<=i| e203 g_s181_200) (= g_s183_202 (|-i| g_s181_200 e141)) (mem g_s184_204 g_s135_139) (mem g_s185_205 g_s135_139) (= g_s184_204 e146) (= g_s185_205 e141) (mem g_s186_206 g_s134_137) (mem g_s187_207 g_s134_137) (mem g_s188_208 g_s134_137) (mem g_s189_209 g_s135_139) (mem g_s190_210 g_s135_139) (mem g_s191_211 g_s135_139) (mem g_s192_212 g_s135_139) (mem g_s193_213 g_s135_139) (mem g_s194_214 g_s135_139) (not (= g_s193_213 g_s194_214)) (mem g_s195_215 g_s135_139) (mem g_s196_216 g_s135_139) (mem g_s197_217 g_s135_139) (not (= g_s195_215 g_s196_216)) (not (= g_s195_215 g_s197_217)) (not (= g_s196_216 g_s197_217)) (mem g_s198_218 g_s133_135) (mem g_s199_219 g_s135_139) (mem g_s200_220 g_s135_139) (mem g_s201_221 g_s134_137) (|<=i| e222 g_s201_221) (|<=i| g_s201_221 e223) (|<=i| g_s155_165 g_s201_221) (mem g_s202_224 (|-->| (interval e0 e138) g_s134_137)) (mem g_s203_225 g_s133_135) (mem g_s204_226 g_s133_135) (mem g_s205_227 g_s134_137) (mem g_s206_228 g_s134_137) (mem g_s207_229 g_s133_135) (mem g_s208_230 g_s133_135) (mem g_s209_231 g_s133_135) (mem g_s210_232 g_s133_135) (mem g_s211_233 g_s133_135) (mem g_s212_234 g_s133_135) (mem g_s213_235 g_s133_135) (mem g_s214_236 g_s133_135) (mem g_s215_237 g_s133_135) (mem g_s216_238 g_s133_135) (mem g_s217_239 g_s133_135) (mem g_s218_240 g_s133_135) (mem g_s219_241 g_s133_135) (mem g_s220_242 g_s133_135) (mem g_s221_243 g_s133_135) (mem g_s222_244 g_s133_135) (mem g_s223_245 g_s133_135) (mem g_s224_246 g_s133_135) (mem g_s225_247 g_s133_135) (mem g_s226_248 g_s133_135) (mem g_s227_249 g_s133_135) (mem g_s228_250 g_s134_137) (mem g_s229_251 (|-->| (interval e0 e146) g_s135_139)) (mem g_s230_252 g_s135_139) (|<i| g_s230_252 g_s182_201) (mem g_s231_253 g_s135_139) (= g_s231_253 (|-i| g_s230_252 e141)) (mem g_s232_254 g_s135_139) (|<=i| g_s232_254 g_s230_252) (= g_s232_254 e146) (mem g_s233_255 g_s135_139) (mem g_s234_256 g_s135_139) (= g_s234_256 g_s233_255) (= g_s234_256 e146) (mem g_s235_257 (|-->| (interval e0 e140) g_s135_139)) (mem g_s236_258 (|-->| (interval e0 e140) g_s135_139)) (|<=i| (|+i| e259 (|*i| e195 g_s230_252)) g_s201_221) (|<=i| (|+i| e260 (|*i| e140 g_s175_192)) g_s201_221) (|<=i| (|*i| e195 g_s230_252) e261) (|<=i| (|*i| e140 g_s175_192) e262) (mem g_s237_263 (|-->| (interval e0 e146) g_s135_139))))
(define-fun |def_seext| () Bool (and (mem g_s238_264 (seq g_s135_139)) (|<=i| (size g_s238_264) g_s183_202) (mem g_s239_265 g_s134_137)))
(define-fun |def_lprp| () Bool true)
(define-fun |def_inprp| () Bool true)
(define-fun |def_inext| () Bool true)
(define-fun |def_inv| () Bool true)
(define-fun |def_ass| () Bool true)
(define-fun |def_cst| () Bool true)
(define-fun |def_sets| () Bool true)
; PO group 0 
(assert |def_B definitions|)
(assert |def_ctx|)
(assert |def_cst|)
(assert |def_lprp|)
(assert |def_inprp|)
(assert |def_inext|)
(assert |def_seext|)
(assert |def_inv|)
(assert |def_ass|)
(define-fun lh_1 () Bool (mem g_s241_266 g_s134_137))
; PO 1 in group 0
(assert (not (=> lh_1 (mem g_s238_264 (seq (ran g_s238_264))))))
(check-sat)
(exit)